(declare-const salario Int) (declare-const prestacao Int) (declare-const proporcao Int) (assert (= proporcao ( / ( * salario 30) 100)))(assert (not (= prestacao 3))) (assert (not (= salario -30))) (assert (not (= proporcao -9))) (check-sat) (get-model)
